c colouring generated by benchmark framework
p edge 958 957
v 1 0
v 2 2
v 3 0
v 4 0
v 5 1
v 6 1
v 7 0
v 8 2
v 9 2
v 10 1
v 11 0
v 12 1
v 13 1
v 14 0
v 15 0
v 16 2
v 17 1
v 18 2
v 19 2
v 20 0
v 21 2
v 22 2
v 23 0
v 24 2
v 25 1
v 26 1
v 27 1
v 28 0
v 29 0
v 30 0
v 31 1
v 32 2
v 33 1
v 34 2
v 35 0
v 36 2
v 37 0
v 38 1
v 39 0
v 40 2
v 41 0
v 42 1
v 43 1
v 44 2
v 45 0
v 46 2
v 47 1
v 48 2
v 49 2
v 50 1
v 51 2
v 52 1
v 53 0
v 54 2
v 55 1
v 56 2
v 57 1
v 58 1
v 59 0
v 60 1
v 61 2
v 62 0
v 63 0
v 64 0
v 65 2
v 66 0
v 67 2
v 68 1
v 69 1
v 70 2
v 71 1
v 72 1
v 73 0
v 74 2
v 75 0
v 76 1
v 77 2
v 78 1
v 79 0
v 80 2
v 81 2
v 82 0
v 83 0
v 84 1
v 85 0
v 86 1
v 87 1
v 88 0
v 89 1
v 90 1
v 91 1
v 92 0
v 93 2
v 94 1
v 95 1
v 96 2
v 97 0
v 98 1
v 99 1
v 100 1
v 101 2
v 102 2
v 103 0
v 104 1
v 105 2
v 106 2
v 107 1
v 108 0
v 109 0
v 110 2
v 111 1
v 112 0
v 113 1
v 114 1
v 115 2
v 116 1
v 117 0
v 118 0
v 119 0
v 120 2
v 121 2
v 122 1
v 123 1
v 124 0
v 125 1
v 126 0
v 127 2
v 128 2
v 129 1
v 130 1
v 131 2
v 132 1
v 133 1
v 134 2
v 135 2
v 136 1
v 137 1
v 138 0
v 139 2
v 140 0
v 141 2
v 142 0
v 143 2
v 144 1
v 145 1
v 146 0
v 147 0
v 148 1
v 149 2
v 150 1
v 151 1
v 152 0
v 153 1
v 154 0
v 155 1
v 156 0
v 157 2
v 158 0
v 159 0
v 160 1
v 161 0
v 162 2
v 163 2
v 164 0
v 165 1
v 166 0
v 167 2
v 168 2
v 169 2
v 170 2
v 171 0
v 172 1
v 173 2
v 174 2
v 175 1
v 176 1
v 177 0
v 178 2
v 179 2
v 180 2
v 181 0
v 182 2
v 183 0
v 184 0
v 185 1
v 186 2
v 187 0
v 188 1
v 189 2
v 190 0
v 191 2
v 192 0
v 193 2
v 194 1
v 195 0
v 196 2
v 197 2
v 198 0
v 199 2
v 200 2
v 201 1
v 202 2
v 203 2
v 204 1
v 205 1
v 206 2
v 207 1
v 208 0
v 209 2
v 210 0
v 211 0
v 212 0
v 213 1
v 214 1
v 215 2
v 216 0
v 217 2
v 218 0
v 219 1
v 220 1
v 221 0
v 222 2
v 223 0
v 224 2
v 225 0
v 226 1
v 227 0
v 228 2
v 229 1
v 230 1
v 231 2
v 232 2
v 233 1
v 234 0
v 235 2
v 236 2
v 237 2
v 238 1
v 239 0
v 240 2
v 241 2
v 242 1
v 243 0
v 244 2
v 245 2
v 246 2
v 247 2
v 248 1
v 249 0
v 250 2
v 251 1
v 252 1
v 253 0
v 254 2
v 255 2
v 256 2
v 257 0
v 258 2
v 259 0
v 260 0
v 261 1
v 262 2
v 263 0
v 264 2
v 265 1
v 266 2
v 267 0
v 268 1
v 269 0
v 270 1
v 271 0
v 272 0
v 273 0
v 274 1
v 275 0
v 276 0
v 277 0
v 278 2
v 279 0
v 280 1
v 281 2
v 282 2
v 283 0
v 284 2
v 285 1
v 286 1
v 287 1
v 288 2
v 289 1
v 290 0
v 291 1
v 292 1
v 293 2
v 294 2
v 295 0
v 296 1
v 297 0
v 298 1
v 299 0
v 300 2
v 301 2
v 302 2
v 303 2
v 304 2
v 305 2
v 306 2
v 307 0
v 308 2
v 309 0
v 310 0
v 311 1
v 312 0
v 313 1
v 314 0
v 315 1
v 316 2
v 317 1
v 318 2
v 319 2
v 320 2
v 321 0
v 322 0
v 323 2
v 324 2
v 325 1
v 326 0
v 327 2
v 328 1
v 329 2
v 330 2
v 331 0
v 332 1
v 333 0
v 334 0
v 335 2
v 336 2
v 337 2
v 338 0
v 339 0
v 340 1
v 341 0
v 342 1
v 343 1
v 344 1
v 345 2
v 346 1
v 347 1
v 348 0
v 349 0
v 350 1
v 351 2
v 352 1
v 353 1
v 354 1
v 355 0
v 356 1
v 357 1
v 358 2
v 359 0
v 360 2
v 361 0
v 362 1
v 363 1
v 364 1
v 365 1
v 366 1
v 367 0
v 368 0
v 369 1
v 370 0
v 371 0
v 372 1
v 373 0
v 374 2
v 375 2
v 376 0
v 377 2
v 378 0
v 379 0
v 380 1
v 381 2
v 382 0
v 383 1
v 384 2
v 385 0
v 386 0
v 387 0
v 388 0
v 389 2
v 390 0
v 391 0
v 392 1
v 393 2
v 394 2
v 395 1
v 396 1
v 397 2
v 398 1
v 399 1
v 400 2
v 401 2
v 402 0
v 403 1
v 404 2
v 405 2
v 406 1
v 407 2
v 408 0
v 409 2
v 410 0
v 411 0
v 412 2
v 413 1
v 414 1
v 415 1
v 416 2
v 417 1
v 418 2
v 419 2
v 420 0
v 421 0
v 422 1
v 423 0
v 424 2
v 425 2
v 426 1
v 427 2
v 428 1
v 429 2
v 430 0
v 431 2
v 432 2
v 433 0
v 434 0
v 435 1
v 436 1
v 437 1
v 438 2
v 439 1
v 440 1
v 441 1
v 442 2
v 443 1
v 444 1
v 445 2
v 446 2
v 447 1
v 448 0
v 449 1
v 450 0
v 451 2
v 452 2
v 453 1
v 454 1
v 455 1
v 456 2
v 457 1
v 458 2
v 459 2
v 460 2
v 461 0
v 462 0
v 463 2
v 464 0
v 465 1
v 466 1
v 467 0
v 468 2
v 469 2
v 470 1
v 471 0
v 472 1
v 473 1
v 474 1
v 475 0
v 476 0
v 477 2
v 478 0
v 479 2
v 480 0
v 481 0
v 482 2
v 483 0
v 484 1
v 485 1
v 486 0
v 487 2
v 488 0
v 489 0
v 490 2
v 491 0
v 492 0
v 493 2
v 494 2
v 495 1
v 496 0
v 497 0
v 498 1
v 499 2
v 500 0
v 501 0
v 502 2
v 503 2
v 504 2
v 505 1
v 506 0
v 507 2
v 508 0
v 509 1
v 510 0
v 511 2
v 512 2
v 513 1
v 514 0
v 515 2
v 516 1
v 517 2
v 518 0
v 519 1
v 520 2
v 521 2
v 522 1
v 523 1
v 524 2
v 525 1
v 526 2
v 527 1
v 528 2
v 529 0
v 530 0
v 531 1
v 532 1
v 533 2
v 534 1
v 535 0
v 536 0
v 537 1
v 538 2
v 539 2
v 540 1
v 541 1
v 542 0
v 543 2
v 544 2
v 545 0
v 546 1
v 547 1
v 548 0
v 549 0
v 550 2
v 551 1
v 552 1
v 553 1
v 554 1
v 555 2
v 556 0
v 557 1
v 558 0
v 559 1
v 560 2
v 561 1
v 562 1
v 563 0
v 564 2
v 565 0
v 566 0
v 567 2
v 568 2
v 569 2
v 570 0
v 571 0
v 572 1
v 573 1
v 574 0
v 575 2
v 576 0
v 577 2
v 578 1
v 579 0
v 580 2
v 581 0
v 582 1
v 583 1
v 584 2
v 585 0
v 586 1
v 587 2
v 588 2
v 589 0
v 590 2
v 591 1
v 592 2
v 593 2
v 594 2
v 595 1
v 596 1
v 597 2
v 598 0
v 599 0
v 600 1
v 601 1
v 602 2
v 603 2
v 604 1
v 605 0
v 606 2
v 607 2
v 608 0
v 609 1
v 610 0
v 611 2
v 612 1
v 613 1
v 614 2
v 615 2
v 616 2
v 617 1
v 618 0
v 619 0
v 620 2
v 621 0
v 622 0
v 623 1
v 624 2
v 625 2
v 626 2
v 627 1
v 628 1
v 629 2
v 630 2
v 631 0
v 632 1
v 633 0
v 634 1
v 635 1
v 636 0
v 637 1
v 638 0
v 639 2
v 640 2
v 641 2
v 642 2
v 643 0
v 644 0
v 645 2
v 646 2
v 647 0
v 648 1
v 649 1
v 650 2
v 651 1
v 652 2
v 653 1
v 654 1
v 655 0
v 656 2
v 657 0
v 658 1
v 659 0
v 660 0
v 661 2
v 662 1
v 663 1
v 664 0
v 665 2
v 666 2
v 667 0
v 668 2
v 669 2
v 670 0
v 671 1
v 672 0
v 673 2
v 674 1
v 675 0
v 676 0
v 677 1
v 678 2
v 679 1
v 680 1
v 681 0
v 682 0
v 683 1
v 684 1
v 685 2
v 686 0
v 687 0
v 688 0
v 689 2
v 690 2
v 691 0
v 692 1
v 693 2
v 694 0
v 695 2
v 696 1
v 697 0
v 698 2
v 699 2
v 700 1
v 701 1
v 702 2
v 703 2
v 704 2
v 705 1
v 706 1
v 707 0
v 708 2
v 709 0
v 710 0
v 711 0
v 712 0
v 713 0
v 714 0
v 715 0
v 716 1
v 717 0
v 718 0
v 719 1
v 720 2
v 721 2
v 722 0
v 723 2
v 724 0
v 725 2
v 726 1
v 727 1
v 728 2
v 729 0
v 730 0
v 731 0
v 732 1
v 733 2
v 734 1
v 735 1
v 736 2
v 737 1
v 738 1
v 739 2
v 740 0
v 741 0
v 742 2
v 743 1
v 744 2
v 745 1
v 746 1
v 747 0
v 748 2
v 749 0
v 750 2
v 751 0
v 752 0
v 753 0
v 754 2
v 755 2
v 756 2
v 757 2
v 758 0
v 759 1
v 760 0
v 761 0
v 762 1
v 763 2
v 764 1
v 765 2
v 766 0
v 767 1
v 768 1
v 769 0
v 770 0
v 771 1
v 772 0
v 773 0
v 774 2
v 775 1
v 776 0
v 777 1
v 778 0
v 779 2
v 780 2
v 781 0
v 782 2
v 783 2
v 784 2
v 785 0
v 786 1
v 787 0
v 788 2
v 789 1
v 790 1
v 791 0
v 792 0
v 793 0
v 794 1
v 795 0
v 796 0
v 797 0
v 798 0
v 799 2
v 800 2
v 801 2
v 802 2
v 803 2
v 804 0
v 805 1
v 806 2
v 807 2
v 808 0
v 809 1
v 810 2
v 811 1
v 812 0
v 813 2
v 814 0
v 815 0
v 816 0
v 817 0
v 818 0
v 819 2
v 820 2
v 821 1
v 822 0
v 823 1
v 824 1
v 825 2
v 826 1
v 827 1
v 828 1
v 829 1
v 830 1
v 831 0
v 832 1
v 833 1
v 834 1
v 835 1
v 836 1
v 837 2
v 838 1
v 839 1
v 840 1
v 841 0
v 842 2
v 843 2
v 844 2
v 845 0
v 846 0
v 847 0
v 848 0
v 849 2
v 850 2
v 851 2
v 852 2
v 853 2
v 854 1
v 855 2
v 856 0
v 857 1
v 858 0
v 859 2
v 860 0
v 861 0
v 862 2
v 863 1
v 864 2
v 865 1
v 866 2
v 867 0
v 868 0
v 869 1
v 870 0
v 871 0
v 872 0
v 873 1
v 874 1
v 875 1
v 876 2
v 877 0
v 878 2
v 879 2
v 880 1
v 881 0
v 882 0
v 883 0
v 884 2
v 885 1
v 886 1
v 887 0
v 888 1
v 889 1
v 890 1
v 891 0
v 892 1
v 893 2
v 894 0
v 895 2
v 896 0
v 897 0
v 898 2
v 899 2
v 900 2
v 901 1
v 902 2
v 903 2
v 904 2
v 905 1
v 906 2
v 907 2
v 908 1
v 909 1
v 910 1
v 911 1
v 912 2
v 913 0
v 914 0
v 915 2
v 916 1
v 917 2
v 918 2
v 919 0
v 920 2
v 921 1
v 922 2
v 923 2
v 924 2
v 925 0
v 926 0
v 927 1
v 928 2
v 929 0
v 930 1
v 931 1
v 932 1
v 933 0
v 934 1
v 935 2
v 936 2
v 937 0
v 938 0
v 939 2
v 940 1
v 941 2
v 942 0
v 943 0
v 944 0
v 945 0
v 946 1
v 947 2
v 948 1
v 949 0
v 950 1
v 951 2
v 952 2
v 953 2
v 954 2
v 955 0
v 956 0
v 957 0
v 958 1
